 74 26 84 41  3 46 39 90 62 63 74  4 37 75 72 30 43 95 41 97
 70 92 36 70 37 36 42 34 29 80 91 56 71 14 31 75 80 73 32 56
 84 20 64 44 69 63 94 86 66 97 25 90 12 62 83 32 12 38 22 92
 63 61 46  6 83 49 78 84 97 56 76  9 38 21 80 47 24 95 80 65
 72 91 21 70 12 67 65 90 47 82 62  3 84 30 91  5 11 41 14 28
 78 58 53 17 36  3 83 91 73 81 74  2 31 37 78 74 51 41 78 26
 33 70 10 45 70  2 92 50 54 64 44  4 99 43 43 11 60 53 45 63
 87 20 71 95 71 99 79 19 41 74  8 55 87 87 37 52 36  6 42 30
  3 86  3 89 57 27 28 88 48 26 58  6 33  3 25 61 93 69 53 47
 28 36 39 63 66 44 18 67 17 84  9 33 80 27 42 60 96 81 31 88